(declare-fun and.i424.i_10_48 () (_ BitVec 64))
(declare-fun conv.i.i450.i_10_59 () (_ BitVec 32))
(declare-fun i23.i449.i_10_58 () (_ BitVec 1))
(declare-fun tobool.not.i5.i444.i_10_56 () (_ BitVec 1))
(declare-fun tobool.not.i.i435.i_10_52 () (_ BitVec 1))
(declare-fun and6.i.i.i2.i441.i_10_54 () (_ BitVec 64))
(declare-fun or.i422.i_10_45 () (_ BitVec 64))
(declare-fun and6.i.i.i.i432.i_10_50 () (_ BitVec 64))
(declare-fun src_reg1.sroa.13.0.copyload_10_39 () (_ BitVec 64))
(declare-fun neg.i423.i_10_47 () (_ BitVec 64))
(declare-fun xor.i421.i_10_44 () (_ BitVec 64))
(declare-fun i105.i_10_43 () (_ BitVec 64))
(declare-fun src_reg1.sroa.3.0.copyload_10_38 () (_ BitVec 64))
(declare-fun i103.i_10_42 () (_ BitVec 64))
(declare-fun dst_reg_10_3 () (_ BitVec 64))
(declare-fun dst_reg_10_2 () (_ BitVec 64))
(declare-fun tobool.not.i1.i.i_10_41 () (_ BitVec 1))
(declare-fun src_reg_10_21 () (_ BitVec 64))
(declare-fun src_reg_10_20 () (_ BitVec 64))
(declare-fun src_reg_10_35 () (_ BitVec 8))
(declare-fun src_reg_10_34 () (_ BitVec 32))
(declare-fun src_reg_10_33 () (_ BitVec 32))
(declare-fun src_reg_10_32 () (_ BitVec 32))
(declare-fun src_reg_10_31 () (_ BitVec 32))
(declare-fun src_reg_10_30 () (_ BitVec 32))
(declare-fun src_reg_10_29 () (_ BitVec 32))
(declare-fun src_reg_10_28 () (_ BitVec 32))
(declare-fun src_reg_10_27 () (_ BitVec 32))
(declare-fun src_reg_10_26 () (_ BitVec 32))
(declare-fun src_reg_10_25 () (_ BitVec 64))
(declare-fun src_reg_10_24 () (_ BitVec 64))
(declare-fun src_reg_10_23 () (_ BitVec 64))
(declare-fun src_reg_10_22 () (_ BitVec 64))
(declare-fun src_reg_10_19 () (_ BitVec 32))
(declare-fun src_reg_10_18 () (_ BitVec 32))
(declare-fun dst_reg_10_17 () (_ BitVec 8))
(declare-fun dst_reg_10_16 () (_ BitVec 32))
(declare-fun dst_reg_10_15 () (_ BitVec 32))
(declare-fun dst_reg_10_14 () (_ BitVec 32))
(declare-fun dst_reg_10_13 () (_ BitVec 32))
(declare-fun dst_reg_10_12 () (_ BitVec 32))
(declare-fun dst_reg_10_11 () (_ BitVec 32))
(declare-fun dst_reg_10_10 () (_ BitVec 32))
(declare-fun dst_reg_10_9 () (_ BitVec 32))
(declare-fun dst_reg_10_8 () (_ BitVec 32))
(declare-fun dst_reg_10_7 () (_ BitVec 64))
(declare-fun dst_reg_10_6 () (_ BitVec 64))
(declare-fun dst_reg_10_5 () (_ BitVec 64))
(declare-fun dst_reg_10_4 () (_ BitVec 64))
(declare-fun dst_reg_10_1 () (_ BitVec 32))
(declare-fun dst_reg_10_0 () (_ BitVec 32))
(declare-fun shr5.i.i.i.i.i.i459.i_10_61 () (_ BitVec 64))
(declare-fun cmp.not.i.i_10_64 () (_ BitVec 1))
(declare-fun conv9.i.i_10_63 () (_ BitVec 32))
(declare-fun or.i481.i_10_62 () (_ BitVec 64))
(declare-fun dst_reg_10_84 () (_ BitVec 8))
(declare-fun dst_reg_10_83 () (_ BitVec 32))
(declare-fun dst_reg_10_82 () (_ BitVec 32))
(declare-fun dst_reg_10_81 () (_ BitVec 32))
(declare-fun dst_reg_10_80 () (_ BitVec 32))
(declare-fun dst_reg_10_79 () (_ BitVec 32))
(declare-fun dst_reg_10_78 () (_ BitVec 32))
(declare-fun dst_reg_10_77 () (_ BitVec 32))
(declare-fun dst_reg_10_76 () (_ BitVec 32))
(declare-fun dst_reg_10_75 () (_ BitVec 32))
(declare-fun dst_reg_10_74 () (_ BitVec 64))
(declare-fun dst_reg_10_73 () (_ BitVec 64))
(declare-fun dst_reg_10_72 () (_ BitVec 64))
(declare-fun dst_reg_10_71 () (_ BitVec 64))
(declare-fun dst_reg_10_70 () (_ BitVec 64))
(declare-fun dst_reg_10_69 () (_ BitVec 64))
(declare-fun dst_reg_10_68 () (_ BitVec 32))
(declare-fun dst_reg_10_67 () (_ BitVec 32))
(declare-fun src_reg_10_102 () (_ BitVec 8))
(declare-fun src_reg_10_101 () (_ BitVec 32))
(declare-fun src_reg_10_100 () (_ BitVec 32))
(declare-fun src_reg_10_99 () (_ BitVec 32))
(declare-fun src_reg_10_98 () (_ BitVec 32))
(declare-fun src_reg_10_97 () (_ BitVec 32))
(declare-fun src_reg_10_96 () (_ BitVec 32))
(declare-fun src_reg_10_95 () (_ BitVec 32))
(declare-fun src_reg_10_94 () (_ BitVec 32))
(declare-fun src_reg_10_93 () (_ BitVec 32))
(declare-fun src_reg_10_92 () (_ BitVec 64))
(declare-fun src_reg_10_91 () (_ BitVec 64))
(declare-fun src_reg_10_90 () (_ BitVec 64))
(declare-fun src_reg_10_89 () (_ BitVec 64))
(declare-fun src_reg_10_88 () (_ BitVec 64))
(declare-fun src_reg_10_87 () (_ BitVec 64))
(declare-fun src_reg_10_86 () (_ BitVec 32))
(declare-fun src_reg_10_85 () (_ BitVec 32))
(declare-fun i22.i494.i_10_108 () (_ BitVec 64))
(declare-fun i21.i492.i_10_107 () (_ BitVec 1))
(declare-fun tobool.not.i1.i491.i_10_105 () (_ BitVec 1))
(declare-fun i20.i490.i_10_103 () (_ BitVec 64))
(declare-fun conv.i.i.i505.i_10_112 () (_ BitVec 32))
(declare-fun or8.i.i.i565.i_10_148 () (_ BitVec 64))
(declare-fun cond14.i8.i.i567.i_10_150 () (_ BitVec 64))
(declare-fun .or.i517.i_10_118 () (_ BitVec 64))
(declare-fun cmp10.i.i.i566.i_10_149 () (_ BitVec 1))
(declare-fun and7.i.i.i564.i_10_147 () (_ BitVec 64))
(declare-fun or.i5.i.i559.i_10_143 () (_ BitVec 64))
(declare-fun cond.i7.i.i561.i_10_145 () (_ BitVec 64))
(declare-fun ..i516.i_10_116 () (_ BitVec 64))
(declare-fun cmp.i6.i.i560.i_10_144 () (_ BitVec 1))
(declare-fun and.i4.i.i558.i_10_142 () (_ BitVec 64))
(declare-fun conv29.i.i.i549.i_10_138 () (_ BitVec 32))
(declare-fun cond36.i.i.i551.i_10_140 () (_ BitVec 32))
(declare-fun i30.i.i.i547.i_10_137 () (_ BitVec 32))
(declare-fun cmp31.i.i.i550.i_10_139 () (_ BitVec 1))
(declare-fun or.i512.i_10_113 () (_ BitVec 64))
(declare-fun conv17.i.i.i543.i_10_134 () (_ BitVec 32))
(declare-fun cond24.i.i.i545.i_10_136 () (_ BitVec 32))
(declare-fun i29.i.i.i542.i_10_133 () (_ BitVec 32))
(declare-fun cmp19.i.i.i544.i_10_135 () (_ BitVec 1))
(declare-fun conv7.i.i.i538.i_10_130 () (_ BitVec 32))
(declare-fun cond14.i.i.i540.i_10_132 () (_ BitVec 32))
(declare-fun i28.i.i.i535.i_10_126 () (_ BitVec 32))
(declare-fun cmp9.i.i.i539.i_10_131 () (_ BitVec 1))
(declare-fun or6.i.i.i537.i_10_129 () (_ BitVec 64))
(declare-fun and5.i.i.i536.i_10_128 () (_ BitVec 64))
(declare-fun conv.i.i3.i531.i_10_123 () (_ BitVec 32))
(declare-fun cond.i.i.i533.i_10_125 () (_ BitVec 32))
(declare-fun i27.i.i.i528.i_10_119 () (_ BitVec 32))
(declare-fun cmp.i.i.i532.i_10_124 () (_ BitVec 1))
(declare-fun or.i.i.i530.i_10_122 () (_ BitVec 64))
(declare-fun and.i.i.i529.i_10_121 () (_ BitVec 64))
(declare-fun cmp.not.i514.i_10_114 () (_ BitVec 1))
(declare-fun src_reg_10_222 () (_ BitVec 8))
(declare-fun src_reg_10_186 () (_ BitVec 8))
(declare-fun src_reg_10_221 () (_ BitVec 32))
(declare-fun src_reg_10_185 () (_ BitVec 32))
(declare-fun src_reg_10_220 () (_ BitVec 32))
(declare-fun src_reg_10_184 () (_ BitVec 32))
(declare-fun src_reg_10_219 () (_ BitVec 32))
(declare-fun src_reg_10_183 () (_ BitVec 32))
(declare-fun src_reg_10_218 () (_ BitVec 32))
(declare-fun src_reg_10_182 () (_ BitVec 32))
(declare-fun src_reg_10_217 () (_ BitVec 32))
(declare-fun src_reg_10_181 () (_ BitVec 32))
(declare-fun src_reg_10_216 () (_ BitVec 32))
(declare-fun src_reg_10_180 () (_ BitVec 32))
(declare-fun src_reg_10_215 () (_ BitVec 32))
(declare-fun src_reg_10_179 () (_ BitVec 32))
(declare-fun src_reg_10_214 () (_ BitVec 32))
(declare-fun src_reg_10_178 () (_ BitVec 32))
(declare-fun src_reg_10_213 () (_ BitVec 32))
(declare-fun src_reg_10_177 () (_ BitVec 32))
(declare-fun src_reg_10_212 () (_ BitVec 64))
(declare-fun src_reg_10_176 () (_ BitVec 64))
(declare-fun src_reg_10_211 () (_ BitVec 64))
(declare-fun src_reg_10_175 () (_ BitVec 64))
(declare-fun src_reg_10_210 () (_ BitVec 64))
(declare-fun src_reg_10_174 () (_ BitVec 64))
(declare-fun src_reg_10_209 () (_ BitVec 64))
(declare-fun src_reg_10_173 () (_ BitVec 64))
(declare-fun src_reg_10_208 () (_ BitVec 64))
(declare-fun src_reg_10_172 () (_ BitVec 64))
(declare-fun src_reg_10_207 () (_ BitVec 64))
(declare-fun src_reg_10_171 () (_ BitVec 64))
(declare-fun src_reg_10_206 () (_ BitVec 32))
(declare-fun src_reg_10_170 () (_ BitVec 32))
(declare-fun src_reg_10_205 () (_ BitVec 32))
(declare-fun src_reg_10_169 () (_ BitVec 32))
(declare-fun dst_reg_10_204 () (_ BitVec 8))
(declare-fun dst_reg_10_168 () (_ BitVec 8))
(declare-fun dst_reg_10_203 () (_ BitVec 32))
(declare-fun dst_reg_10_167 () (_ BitVec 32))
(declare-fun dst_reg_10_202 () (_ BitVec 32))
(declare-fun dst_reg_10_166 () (_ BitVec 32))
(declare-fun dst_reg_10_201 () (_ BitVec 32))
(declare-fun dst_reg_10_165 () (_ BitVec 32))
(declare-fun dst_reg_10_200 () (_ BitVec 32))
(declare-fun dst_reg_10_164 () (_ BitVec 32))
(declare-fun dst_reg_10_199 () (_ BitVec 32))
(declare-fun dst_reg_10_163 () (_ BitVec 32))
(declare-fun dst_reg_10_198 () (_ BitVec 32))
(declare-fun dst_reg_10_162 () (_ BitVec 32))
(declare-fun dst_reg_10_197 () (_ BitVec 32))
(declare-fun dst_reg_10_161 () (_ BitVec 32))
(declare-fun dst_reg_10_196 () (_ BitVec 32))
(declare-fun dst_reg_10_160 () (_ BitVec 32))
(declare-fun dst_reg_10_195 () (_ BitVec 32))
(declare-fun dst_reg_10_159 () (_ BitVec 32))
(declare-fun dst_reg_10_194 () (_ BitVec 64))
(declare-fun dst_reg_10_158 () (_ BitVec 64))
(declare-fun dst_reg_10_193 () (_ BitVec 64))
(declare-fun dst_reg_10_157 () (_ BitVec 64))
(declare-fun dst_reg_10_192 () (_ BitVec 64))
(declare-fun dst_reg_10_156 () (_ BitVec 64))
(declare-fun dst_reg_10_191 () (_ BitVec 64))
(declare-fun dst_reg_10_155 () (_ BitVec 64))
(declare-fun dst_reg_10_190 () (_ BitVec 64))
(declare-fun dst_reg_10_154 () (_ BitVec 64))
(declare-fun dst_reg_10_189 () (_ BitVec 64))
(declare-fun dst_reg_10_153 () (_ BitVec 64))
(declare-fun dst_reg_10_188 () (_ BitVec 32))
(declare-fun dst_reg_10_152 () (_ BitVec 32))
(declare-fun dst_reg_10_187 () (_ BitVec 32))
(declare-fun dst_reg_10_151 () (_ BitVec 32))
(assert (let ((a!1 (or (and (= cmp.not.i.i_10_64 #b1) (= i23.i449.i_10_58 #b0))
               (and (= cmp.not.i.i_10_64 #b0) (= i23.i449.i_10_58 #b0))
               (= i23.i449.i_10_58 #b1)))
      (a!6 (and (= dst_reg_10_70 i20.i490.i_10_103)
                (ite (= i20.i490.i_10_103 #x0000000000000000)
                     (= tobool.not.i1.i491.i_10_105 #b1)
                     (= tobool.not.i1.i491.i_10_105 #b0))
                (ite (= tobool.not.i1.i.i_10_41 #b1)
                     (= i21.i492.i_10_107 tobool.not.i1.i491.i_10_105)
                     (= i21.i492.i_10_107 #b0))
                (= dst_reg_10_69 i22.i494.i_10_108)
                (=> (= i23.i449.i_10_58 #b1)
                    (and (= #x00000001 src_reg_10_85)
                         (= src_reg_10_19 src_reg_10_86)
                         (= src_reg_10_20 src_reg_10_87)
                         (= src_reg_10_21 src_reg_10_88)
                         (= src_reg_10_22 src_reg_10_89)
                         (= src_reg_10_23 src_reg_10_90)
                         (= src_reg_10_24 src_reg_10_91)
                         (= src_reg_10_25 src_reg_10_92)
                         (= src_reg_10_26 src_reg_10_93)
                         (= src_reg_10_27 src_reg_10_94)
                         (= src_reg_10_28 src_reg_10_95)
                         (= src_reg_10_29 src_reg_10_96)
                         (= src_reg_10_30 src_reg_10_97)
                         (= src_reg_10_31 src_reg_10_98)
                         (= src_reg_10_32 src_reg_10_99)
                         (= src_reg_10_33 src_reg_10_100)
                         (= src_reg_10_34 src_reg_10_101)
                         (= src_reg_10_35 src_reg_10_102)
                         (= #x00000001 dst_reg_10_67)
                         (= dst_reg_10_1 dst_reg_10_68)
                         (= and.i424.i_10_48 dst_reg_10_69)
                         (= shr5.i.i.i.i.i.i459.i_10_61 dst_reg_10_70)
                         (= dst_reg_10_4 dst_reg_10_71)
                         (= dst_reg_10_5 dst_reg_10_72)
                         (= dst_reg_10_6 dst_reg_10_73)
                         (= dst_reg_10_7 dst_reg_10_74)
                         (= conv.i.i450.i_10_59 dst_reg_10_75)
                         (= conv.i.i450.i_10_59 dst_reg_10_76)
                         (= conv.i.i450.i_10_59 dst_reg_10_77)
                         (= conv.i.i450.i_10_59 dst_reg_10_78)
                         (= dst_reg_10_12 dst_reg_10_79)
                         (= dst_reg_10_13 dst_reg_10_80)
                         (= dst_reg_10_14 dst_reg_10_81)
                         (= dst_reg_10_15 dst_reg_10_82)
                         (= dst_reg_10_16 dst_reg_10_83)
                         (= dst_reg_10_17 dst_reg_10_84)))
                (=> (and (= cmp.not.i.i_10_64 #b1) (= i23.i449.i_10_58 #b0))
                    (and (= #x00000001 src_reg_10_85)
                         (= src_reg_10_19 src_reg_10_86)
                         (= src_reg_10_20 src_reg_10_87)
                         (= src_reg_10_21 src_reg_10_88)
                         (= src_reg_10_22 src_reg_10_89)
                         (= src_reg_10_23 src_reg_10_90)
                         (= src_reg_10_24 src_reg_10_91)
                         (= src_reg_10_25 src_reg_10_92)
                         (= src_reg_10_26 src_reg_10_93)
                         (= src_reg_10_27 src_reg_10_94)
                         (= src_reg_10_28 src_reg_10_95)
                         (= src_reg_10_29 src_reg_10_96)
                         (= src_reg_10_30 src_reg_10_97)
                         (= src_reg_10_31 src_reg_10_98)
                         (= src_reg_10_32 src_reg_10_99)
                         (= src_reg_10_33 src_reg_10_100)
                         (= src_reg_10_34 src_reg_10_101)
                         (= src_reg_10_35 src_reg_10_102)
                         (= #x00000001 dst_reg_10_67)
                         (= dst_reg_10_1 dst_reg_10_68)
                         (= and.i424.i_10_48 dst_reg_10_69)
                         (= or.i422.i_10_45 dst_reg_10_70)
                         (= dst_reg_10_4 dst_reg_10_71)
                         (= dst_reg_10_5 dst_reg_10_72)
                         (= dst_reg_10_6 dst_reg_10_73)
                         (= dst_reg_10_7 dst_reg_10_74)
                         (= #x80000000 dst_reg_10_75)
                         (= #x7fffffff dst_reg_10_76)
                         (= conv.i.i450.i_10_59 dst_reg_10_77)
                         (= conv9.i.i_10_63 dst_reg_10_78)
                         (= dst_reg_10_12 dst_reg_10_79)
                         (= dst_reg_10_13 dst_reg_10_80)
                         (= dst_reg_10_14 dst_reg_10_81)
                         (= dst_reg_10_15 dst_reg_10_82)
                         (= dst_reg_10_16 dst_reg_10_83)
                         (= dst_reg_10_17 dst_reg_10_84)))
                (=> (and (= cmp.not.i.i_10_64 #b0) (= i23.i449.i_10_58 #b0))
                    (and (= #x00000001 src_reg_10_85)
                         (= src_reg_10_19 src_reg_10_86)
                         (= src_reg_10_20 src_reg_10_87)
                         (= src_reg_10_21 src_reg_10_88)
                         (= src_reg_10_22 src_reg_10_89)
                         (= src_reg_10_23 src_reg_10_90)
                         (= src_reg_10_24 src_reg_10_91)
                         (= src_reg_10_25 src_reg_10_92)
                         (= src_reg_10_26 src_reg_10_93)
                         (= src_reg_10_27 src_reg_10_94)
                         (= src_reg_10_28 src_reg_10_95)
                         (= src_reg_10_29 src_reg_10_96)
                         (= src_reg_10_30 src_reg_10_97)
                         (= src_reg_10_31 src_reg_10_98)
                         (= src_reg_10_32 src_reg_10_99)
                         (= src_reg_10_33 src_reg_10_100)
                         (= src_reg_10_34 src_reg_10_101)
                         (= src_reg_10_35 src_reg_10_102)
                         (= #x00000001 dst_reg_10_67)
                         (= dst_reg_10_1 dst_reg_10_68)
                         (= and.i424.i_10_48 dst_reg_10_69)
                         (= or.i422.i_10_45 dst_reg_10_70)
                         (= dst_reg_10_4 dst_reg_10_71)
                         (= dst_reg_10_5 dst_reg_10_72)
                         (= dst_reg_10_6 dst_reg_10_73)
                         (= dst_reg_10_7 dst_reg_10_74)
                         (= conv.i.i450.i_10_59 dst_reg_10_75)
                         (= conv9.i.i_10_63 dst_reg_10_76)
                         (= conv.i.i450.i_10_59 dst_reg_10_77)
                         (= conv9.i.i_10_63 dst_reg_10_78)
                         (= dst_reg_10_12 dst_reg_10_79)
                         (= dst_reg_10_13 dst_reg_10_80)
                         (= dst_reg_10_14 dst_reg_10_81)
                         (= dst_reg_10_15 dst_reg_10_82)
                         (= dst_reg_10_16 dst_reg_10_83)
                         (= dst_reg_10_17 dst_reg_10_84)))))
      (a!7 (=> (= i23.i449.i_10_58 #b0)
               (and (= or.i481.i_10_62 (bvor or.i422.i_10_45 xor.i421.i_10_44))
                    (= conv9.i.i_10_63 ((_ extract 31 0) or.i481.i_10_62))
                    (ite (bvsgt conv.i.i450.i_10_59 conv9.i.i_10_63)
                         (= cmp.not.i.i_10_64 #b1)
                         (= cmp.not.i.i_10_64 #b0)))))
      (a!8 (=> (= i23.i449.i_10_58 #b1)
               (and (= shr5.i.i.i.i.i.i459.i_10_61
                       (bvand or.i422.i_10_45 #xffffffff00000000))))))
(let ((a!2 (and (=> (and (= i21.i492.i_10_107 #b1) a!1)
                    (and (= src_reg_10_85 src_reg_10_169)
                         (= src_reg_10_86 src_reg_10_170)
                         (= src_reg_10_87 src_reg_10_171)
                         (= src_reg_10_88 src_reg_10_172)
                         (= src_reg_10_89 src_reg_10_173)
                         (= src_reg_10_90 src_reg_10_174)
                         (= src_reg_10_91 src_reg_10_175)
                         (= src_reg_10_92 src_reg_10_176)
                         (= src_reg_10_93 src_reg_10_177)
                         (= src_reg_10_94 src_reg_10_178)
                         (= src_reg_10_95 src_reg_10_179)
                         (= src_reg_10_96 src_reg_10_180)
                         (= src_reg_10_97 src_reg_10_181)
                         (= src_reg_10_98 src_reg_10_182)
                         (= src_reg_10_99 src_reg_10_183)
                         (= src_reg_10_100 src_reg_10_184)
                         (= src_reg_10_101 src_reg_10_185)
                         (= src_reg_10_102 src_reg_10_186)
                         (= dst_reg_10_67 dst_reg_10_151)
                         (= dst_reg_10_68 dst_reg_10_152)
                         (= dst_reg_10_69 dst_reg_10_153)
                         (= #x0000000000000000 dst_reg_10_154)
                         (= i22.i494.i_10_108 dst_reg_10_155)
                         (= i22.i494.i_10_108 dst_reg_10_156)
                         (= i22.i494.i_10_108 dst_reg_10_157)
                         (= i22.i494.i_10_108 dst_reg_10_158)
                         (= conv.i.i.i505.i_10_112 dst_reg_10_159)
                         (= conv.i.i.i505.i_10_112 dst_reg_10_160)
                         (= conv.i.i.i505.i_10_112 dst_reg_10_161)
                         (= conv.i.i.i505.i_10_112 dst_reg_10_162)
                         (= #x00000000 dst_reg_10_163)
                         (= #x00000000 dst_reg_10_164)
                         (= dst_reg_10_81 dst_reg_10_165)
                         (= dst_reg_10_82 dst_reg_10_166)
                         (= dst_reg_10_83 dst_reg_10_167)
                         (= dst_reg_10_84 dst_reg_10_168)))
                (=> (and (= i21.i492.i_10_107 #b0) a!1)
                    (and (= src_reg_10_85 src_reg_10_169)
                         (= src_reg_10_86 src_reg_10_170)
                         (= src_reg_10_87 src_reg_10_171)
                         (= src_reg_10_88 src_reg_10_172)
                         (= src_reg_10_89 src_reg_10_173)
                         (= src_reg_10_90 src_reg_10_174)
                         (= src_reg_10_91 src_reg_10_175)
                         (= src_reg_10_92 src_reg_10_176)
                         (= src_reg_10_93 src_reg_10_177)
                         (= src_reg_10_94 src_reg_10_178)
                         (= src_reg_10_95 src_reg_10_179)
                         (= src_reg_10_96 src_reg_10_180)
                         (= src_reg_10_97 src_reg_10_181)
                         (= src_reg_10_98 src_reg_10_182)
                         (= src_reg_10_99 src_reg_10_183)
                         (= src_reg_10_100 src_reg_10_184)
                         (= src_reg_10_101 src_reg_10_185)
                         (= src_reg_10_102 src_reg_10_186)
                         (= dst_reg_10_67 dst_reg_10_151)
                         (= dst_reg_10_68 dst_reg_10_152)
                         (= dst_reg_10_69 dst_reg_10_153)
                         (= dst_reg_10_70 dst_reg_10_154)
                         (= cond.i7.i.i561.i_10_145 dst_reg_10_155)
                         (= cond14.i8.i.i567.i_10_150 dst_reg_10_156)
                         (= i22.i494.i_10_108 dst_reg_10_157)
                         (= or.i512.i_10_113 dst_reg_10_158)
                         (= cond.i.i.i533.i_10_125 dst_reg_10_159)
                         (= cond14.i.i.i540.i_10_132 dst_reg_10_160)
                         (= cond24.i.i.i545.i_10_136 dst_reg_10_161)
                         (= cond36.i.i.i551.i_10_140 dst_reg_10_162)
                         (= dst_reg_10_79 dst_reg_10_163)
                         (= dst_reg_10_80 dst_reg_10_164)
                         (= dst_reg_10_81 dst_reg_10_165)
                         (= dst_reg_10_82 dst_reg_10_166)
                         (= dst_reg_10_83 dst_reg_10_167)
                         (= dst_reg_10_84 dst_reg_10_168)))
                (= dst_reg_10_151 dst_reg_10_187)
                (= dst_reg_10_152 dst_reg_10_188)
                (= dst_reg_10_153 dst_reg_10_189)
                (= dst_reg_10_154 dst_reg_10_190)
                (= dst_reg_10_155 dst_reg_10_191)
                (= dst_reg_10_156 dst_reg_10_192)
                (= dst_reg_10_157 dst_reg_10_193)
                (= dst_reg_10_158 dst_reg_10_194)
                (= dst_reg_10_159 dst_reg_10_195)
                (= dst_reg_10_160 dst_reg_10_196)
                (= dst_reg_10_161 dst_reg_10_197)
                (= dst_reg_10_162 dst_reg_10_198)
                (= dst_reg_10_163 dst_reg_10_199)
                (= dst_reg_10_164 dst_reg_10_200)
                (= dst_reg_10_165 dst_reg_10_201)
                (= dst_reg_10_166 dst_reg_10_202)
                (= dst_reg_10_167 dst_reg_10_203)
                (= dst_reg_10_168 dst_reg_10_204)
                (= src_reg_10_169 src_reg_10_205)
                (= src_reg_10_170 src_reg_10_206)
                (= src_reg_10_171 src_reg_10_207)
                (= src_reg_10_172 src_reg_10_208)
                (= src_reg_10_173 src_reg_10_209)
                (= src_reg_10_174 src_reg_10_210)
                (= src_reg_10_175 src_reg_10_211)
                (= src_reg_10_176 src_reg_10_212)
                (= src_reg_10_177 src_reg_10_213)
                (= src_reg_10_178 src_reg_10_214)
                (= src_reg_10_179 src_reg_10_215)
                (= src_reg_10_180 src_reg_10_216)
                (= src_reg_10_181 src_reg_10_217)
                (= src_reg_10_182 src_reg_10_218)
                (= src_reg_10_183 src_reg_10_219)
                (= src_reg_10_184 src_reg_10_220)
                (= src_reg_10_185 src_reg_10_221)
                (= src_reg_10_186 src_reg_10_222)))
      (a!4 (=> (and (= i21.i492.i_10_107 #b0) a!1)
               (and (= or.i512.i_10_113
                       (bvor i22.i494.i_10_108 i20.i490.i_10_103))
                    (ite (bvsgt i22.i494.i_10_108 or.i512.i_10_113)
                         (= cmp.not.i514.i_10_114 #b1)
                         (= cmp.not.i514.i_10_114 #b0))
                    (ite (= cmp.not.i514.i_10_114 #b1)
                         (= ..i516.i_10_116 #x8000000000000000)
                         (= ..i516.i_10_116 i22.i494.i_10_108))
                    (ite (= cmp.not.i514.i_10_114 #b1)
                         (= .or.i517.i_10_118 #x7fffffffffffffff)
                         (= .or.i517.i_10_118 or.i512.i_10_113))
                    (= dst_reg_10_75 i27.i.i.i528.i_10_119)
                    (= and.i.i.i529.i_10_121
                       (bvand i20.i490.i_10_103 #x0000000080000000))
                    (= or.i.i.i530.i_10_122
                       (bvor and.i.i.i529.i_10_121 i22.i494.i_10_108))
                    (= conv.i.i3.i531.i_10_123
                       ((_ extract 31 0) or.i.i.i530.i_10_122))
                    (ite (bvsgt i27.i.i.i528.i_10_119 conv.i.i3.i531.i_10_123)
                         (= cmp.i.i.i532.i_10_124 #b1)
                         (= cmp.i.i.i532.i_10_124 #b0))
                    (ite (= cmp.i.i.i532.i_10_124 #b1)
                         (= cond.i.i.i533.i_10_125 i27.i.i.i528.i_10_119)
                         (= cond.i.i.i533.i_10_125 conv.i.i3.i531.i_10_123))
                    (= dst_reg_10_76 i28.i.i.i535.i_10_126)
                    (= and5.i.i.i536.i_10_128
                       (bvand i20.i490.i_10_103 #x000000007fffffff))
                    (= or6.i.i.i537.i_10_129
                       (bvor and5.i.i.i536.i_10_128 i22.i494.i_10_108))
                    (= conv7.i.i.i538.i_10_130
                       ((_ extract 31 0) or6.i.i.i537.i_10_129))
                    (ite (bvslt i28.i.i.i535.i_10_126 conv7.i.i.i538.i_10_130)
                         (= cmp9.i.i.i539.i_10_131 #b1)
                         (= cmp9.i.i.i539.i_10_131 #b0))
                    (ite (= cmp9.i.i.i539.i_10_131 #b1)
                         (= cond14.i.i.i540.i_10_132 i28.i.i.i535.i_10_126)
                         (= cond14.i.i.i540.i_10_132 conv7.i.i.i538.i_10_130))
                    (= dst_reg_10_77 i29.i.i.i542.i_10_133)
                    (= conv17.i.i.i543.i_10_134
                       ((_ extract 31 0) i22.i494.i_10_108))
                    (ite (bvugt i29.i.i.i542.i_10_133 conv17.i.i.i543.i_10_134)
                         (= cmp19.i.i.i544.i_10_135 #b1)
                         (= cmp19.i.i.i544.i_10_135 #b0))
                    (ite (= cmp19.i.i.i544.i_10_135 #b1)
                         (= cond24.i.i.i545.i_10_136 i29.i.i.i542.i_10_133)
                         (= cond24.i.i.i545.i_10_136 conv17.i.i.i543.i_10_134))
                    (= dst_reg_10_78 i30.i.i.i547.i_10_137)
                    (= conv29.i.i.i549.i_10_138
                       ((_ extract 31 0) or.i512.i_10_113))
                    (ite (bvult i30.i.i.i547.i_10_137 conv29.i.i.i549.i_10_138)
                         (= cmp31.i.i.i550.i_10_139 #b1)
                         (= cmp31.i.i.i550.i_10_139 #b0))
                    (ite (= cmp31.i.i.i550.i_10_139 #b1)
                         (= cond36.i.i.i551.i_10_140 i30.i.i.i547.i_10_137)
                         (= cond36.i.i.i551.i_10_140 conv29.i.i.i549.i_10_138))
                    (= and.i4.i.i558.i_10_142
                       (bvand i20.i490.i_10_103 #x8000000000000000))
                    (= or.i5.i.i559.i_10_143
                       (bvor and.i4.i.i558.i_10_142 i22.i494.i_10_108))
                    (ite (bvsgt ..i516.i_10_116 or.i5.i.i559.i_10_143)
                         (= cmp.i6.i.i560.i_10_144 #b1)
                         (= cmp.i6.i.i560.i_10_144 #b0))
                    (ite (= cmp.i6.i.i560.i_10_144 #b1)
                         (= cond.i7.i.i561.i_10_145 ..i516.i_10_116)
                         (= cond.i7.i.i561.i_10_145 or.i5.i.i559.i_10_143))
                    (= and7.i.i.i564.i_10_147
                       (bvand i20.i490.i_10_103 #x7fffffffffffffff))
                    (= or8.i.i.i565.i_10_148
                       (bvor and7.i.i.i564.i_10_147 i22.i494.i_10_108))
                    (ite (bvslt .or.i517.i_10_118 or8.i.i.i565.i_10_148)
                         (= cmp10.i.i.i566.i_10_149 #b1)
                         (= cmp10.i.i.i566.i_10_149 #b0))
                    (ite (= cmp10.i.i.i566.i_10_149 #b1)
                         (= cond14.i8.i.i567.i_10_150 .or.i517.i_10_118)
                         (= cond14.i8.i.i567.i_10_150 or8.i.i.i565.i_10_148)))))
      (a!5 (=> (and (= i21.i492.i_10_107 #b1) a!1)
               (and (= conv.i.i.i505.i_10_112
                       ((_ extract 31 0) i22.i494.i_10_108))))))
(let ((a!3 (=> (or (and (= i21.i492.i_10_107 #b0) a!1)
                   (and (= i21.i492.i_10_107 #b1) a!1))
               a!2)))
  (and a!3
       a!4
       a!5
       (=> a!1 a!6)
       a!7
       a!8
       (= dst_reg_10_0 dst_reg_10_0)
       (= dst_reg_10_1 dst_reg_10_1)
       (= dst_reg_10_2 dst_reg_10_2)
       (= dst_reg_10_3 dst_reg_10_3)
       (= dst_reg_10_4 dst_reg_10_4)
       (= dst_reg_10_5 dst_reg_10_5)
       (= dst_reg_10_6 dst_reg_10_6)
       (= dst_reg_10_7 dst_reg_10_7)
       (= dst_reg_10_8 dst_reg_10_8)
       (= dst_reg_10_9 dst_reg_10_9)
       (= dst_reg_10_10 dst_reg_10_10)
       (= dst_reg_10_11 dst_reg_10_11)
       (= dst_reg_10_12 dst_reg_10_12)
       (= dst_reg_10_13 dst_reg_10_13)
       (= dst_reg_10_14 dst_reg_10_14)
       (= dst_reg_10_15 dst_reg_10_15)
       (= dst_reg_10_16 dst_reg_10_16)
       (= dst_reg_10_17 dst_reg_10_17)
       (= src_reg_10_18 src_reg_10_18)
       (= src_reg_10_19 src_reg_10_19)
       (= src_reg_10_20 src_reg_10_20)
       (= src_reg_10_21 src_reg_10_21)
       (= src_reg_10_22 src_reg_10_22)
       (= src_reg_10_23 src_reg_10_23)
       (= src_reg_10_24 src_reg_10_24)
       (= src_reg_10_25 src_reg_10_25)
       (= src_reg_10_26 src_reg_10_26)
       (= src_reg_10_27 src_reg_10_27)
       (= src_reg_10_28 src_reg_10_28)
       (= src_reg_10_29 src_reg_10_29)
       (= src_reg_10_30 src_reg_10_30)
       (= src_reg_10_31 src_reg_10_31)
       (= src_reg_10_32 src_reg_10_32)
       (= src_reg_10_33 src_reg_10_33)
       (= src_reg_10_34 src_reg_10_34)
       (= src_reg_10_35 src_reg_10_35)
       (= src_reg_10_20 src_reg1.sroa.3.0.copyload_10_38)
       (= src_reg_10_21 src_reg1.sroa.13.0.copyload_10_39)
       (ite (= src_reg1.sroa.13.0.copyload_10_39 #x0000000000000000)
            (= tobool.not.i1.i.i_10_41 #b1)
            (= tobool.not.i1.i.i_10_41 #b0))
       (= dst_reg_10_2 i103.i_10_42)
       (= dst_reg_10_3 i105.i_10_43)
       (= xor.i421.i_10_44
          (bvxor i103.i_10_42 src_reg1.sroa.3.0.copyload_10_38))
       (= or.i422.i_10_45 (bvor i105.i_10_43 src_reg1.sroa.13.0.copyload_10_39))
       (= neg.i423.i_10_47 (bvxor or.i422.i_10_45 #xffffffffffffffff))
       (= and.i424.i_10_48 (bvand xor.i421.i_10_44 neg.i423.i_10_47))
       (= and6.i.i.i.i432.i_10_50
          (bvand src_reg1.sroa.13.0.copyload_10_39 #x00000000ffffffff))
       (ite (= and6.i.i.i.i432.i_10_50 #x0000000000000000)
            (= tobool.not.i.i435.i_10_52 #b1)
            (= tobool.not.i.i435.i_10_52 #b0))
       (= and6.i.i.i2.i441.i_10_54 (bvand or.i422.i_10_45 #x00000000ffffffff))
       (ite (= and6.i.i.i2.i441.i_10_54 #x0000000000000000)
            (= tobool.not.i5.i444.i_10_56 #b1)
            (= tobool.not.i5.i444.i_10_56 #b0))
       (ite (= tobool.not.i.i435.i_10_52 #b1)
            (= i23.i449.i_10_58 tobool.not.i5.i444.i_10_56)
            (= i23.i449.i_10_58 #b0))
       (= conv.i.i450.i_10_59 ((_ extract 31 0) and.i424.i_10_48)))))))

;{"dst_reg":["dst_reg_10_0","dst_reg_10_1",[""],["dst_reg_10_2","dst_reg_10_3"],"dst_reg_10_4","dst_reg_10_5","dst_reg_10_6","dst_reg_10_7","dst_reg_10_8","dst_reg_10_9","dst_reg_10_10","dst_reg_10_11","dst_reg_10_12","dst_reg_10_13","","","dst_reg_10_14","dst_reg_10_15","dst_reg_10_16"],"src_reg":["src_reg_10_18","src_reg_10_19",[""],["src_reg_10_20","src_reg_10_21"],"src_reg_10_22","src_reg_10_23","src_reg_10_24","src_reg_10_25","src_reg_10_26","src_reg_10_27","src_reg_10_28","src_reg_10_29","src_reg_10_30","src_reg_10_31","","","src_reg_10_32","src_reg_10_33","src_reg_10_34"]}
;{"dst_reg":["dst_reg_10_187","dst_reg_10_188",[""],["dst_reg_10_189","dst_reg_10_190"],"dst_reg_10_191","dst_reg_10_192","dst_reg_10_193","dst_reg_10_194","dst_reg_10_195","dst_reg_10_196","dst_reg_10_197","dst_reg_10_198","dst_reg_10_199","dst_reg_10_200","","","dst_reg_10_201","dst_reg_10_202","dst_reg_10_203"],"src_reg":["src_reg_10_205","src_reg_10_206",[""],["src_reg_10_207","src_reg_10_208"],"src_reg_10_209","src_reg_10_210","src_reg_10_211","src_reg_10_212","src_reg_10_213","src_reg_10_214","src_reg_10_215","src_reg_10_216","src_reg_10_217","src_reg_10_218","","","src_reg_10_219","src_reg_10_220","src_reg_10_221"]}
